17 3 8 3 15 3 8 3 14 1 15 1 17 1 18 1 15 3 20 3 
17 3 8 3 15 3 8 3 14 1 15 1 17 1 18 1 15 3 20 3 
10 1 13 1 13 1 13 1 15 3 13 1 12 1 10 1 13 1 13 1 13 1 15 3 13 3 10 1 13 1 13 1 13 1 15 1 13 1 10 1 5 1 9 5
17 3 8 3 15 3 8 3 14 1 15 1 17 1 18 1 15 3 20 3 
17 3 8 3 15 3 8 3 14 1 15 1 17 1 18 1 15 3 20 3 
10 1 13 1 13 1 13 1 15 3 13 1 12 1 10 1 13 1 13 1 13 1 15 3 13 3 10 1 13 1 13 1 13 1 15 1 13 1 10 1 5 1 9 5
25 1 5 1 5 1 3 1 3 1 5 1 6 1 8 1 5 1 3 1 1 5 
15 1 15 1 15 3 13 1 12 1 10 1 8 1 10 1 8 1 20 5 
12 1 12 1 12 3 12 1 12 1 12 1 10 1 12 1 13 1 12 5
17 3 8 3 15 3 8 3 14 1 15 1 17 1 18 1 15 3 20 3 
17 3 8 3 15 3 8 3 14 1 15 1 17 1 18 1 15 3 20 3 
10 1 13 1 13 1 13 1 15 3 13 1 12 1 10 1 13 1 13 1 13 1 15 3 13 3 10 1 13 1 13 1 13 1 15 1 13 1 10 1 5 1 9 5
17 3 8 3 15 3 8 3 14 1 15 1 17 1 18 1 15 3 20 3 
17 3 8 3 15 3 8 3 14 1 15 1 17 1 18 1 15 3 20 3 
10 1 13 1 13 1 13 1 15 3 13 1 12 1 10 1 13 1 13 1 13 1 15 3 13 3 10 1 13 1 13 1 13 1 15 1 13 1 10 1 5 1 9 5
25 1 5 1 5 1 3 1 3 1 5 1 6 1 8 1 5 1 3 1 1 5 
15 1 15 1 15 3 13 1 12 1 10 1 8 1 10 1 8 1 20 5 
12 1 12 1 12 3 12 1 12 1 12 1 10 1 12 1 13 1 12 5
5 1 5 1 3 1 3 1 5 1 7 1 8 1 5 1 3 1 1 7 